NAME: berlin52
TYPE: TSP
COMMENT: 52 locations in Berlin (Groetschel)
DIMENSION: 52
EDGE_WEIGHT_TYPE: EUC_2D
NODE_COORD_SECTION
1 170.0 85.0
2 166.0 88.0
3 133.0 73.0
4 140.0 70.0
5 142.0 55.0
6 126.0 53.0
7 125.0 60.0
8 119.0 68.0
9 117.0 74.0
10 99.0 83.0
11 73.0 79.0
12 72.0 91.0
EOF

